c colouring generated by benchmark framework
p edge 450 5714
v 1 3
v 2 0
v 3 1
v 4 2
v 5 4
v 6 3
v 7 0
v 8 1
v 9 2
v 10 4
v 11 3
v 12 0
v 13 1
v 14 2
v 15 4
v 16 3
v 17 0
v 18 1
v 19 2
v 20 4
v 21 3
v 22 0
v 23 1
v 24 2
v 25 4
v 26 3
v 27 0
v 28 1
v 29 2
v 30 4
v 31 3
v 32 0
v 33 1
v 34 2
v 35 4
v 36 3
v 37 0
v 38 1
v 39 2
v 40 4
v 41 3
v 42 0
v 43 1
v 44 2
v 45 4
v 46 3
v 47 0
v 48 1
v 49 2
v 50 4
v 51 3
v 52 0
v 53 1
v 54 2
v 55 4
v 56 3
v 57 0
v 58 1
v 59 2
v 60 4
v 61 3
v 62 0
v 63 1
v 64 2
v 65 4
v 66 3
v 67 0
v 68 1
v 69 2
v 70 4
v 71 3
v 72 0
v 73 1
v 74 2
v 75 4
v 76 3
v 77 0
v 78 1
v 79 2
v 80 4
v 81 3
v 82 0
v 83 1
v 84 2
v 85 4
v 86 3
v 87 0
v 88 1
v 89 2
v 90 4
v 91 3
v 92 0
v 93 1
v 94 2
v 95 4
v 96 3
v 97 0
v 98 1
v 99 2
v 100 4
v 101 3
v 102 0
v 103 1
v 104 2
v 105 4
v 106 3
v 107 0
v 108 1
v 109 2
v 110 4
v 111 3
v 112 0
v 113 1
v 114 2
v 115 4
v 116 3
v 117 0
v 118 1
v 119 2
v 120 4
v 121 3
v 122 0
v 123 1
v 124 2
v 125 4
v 126 3
v 127 0
v 128 1
v 129 2
v 130 4
v 131 3
v 132 0
v 133 1
v 134 2
v 135 4
v 136 3
v 137 0
v 138 1
v 139 2
v 140 4
v 141 3
v 142 0
v 143 1
v 144 2
v 145 4
v 146 3
v 147 0
v 148 1
v 149 2
v 150 4
v 151 3
v 152 0
v 153 1
v 154 2
v 155 4
v 156 3
v 157 0
v 158 1
v 159 2
v 160 4
v 161 3
v 162 0
v 163 1
v 164 2
v 165 4
v 166 3
v 167 0
v 168 1
v 169 2
v 170 4
v 171 3
v 172 0
v 173 1
v 174 2
v 175 4
v 176 3
v 177 0
v 178 1
v 179 2
v 180 4
v 181 3
v 182 0
v 183 1
v 184 2
v 185 4
v 186 3
v 187 0
v 188 1
v 189 2
v 190 4
v 191 3
v 192 0
v 193 1
v 194 2
v 195 4
v 196 3
v 197 0
v 198 1
v 199 2
v 200 4
v 201 3
v 202 0
v 203 1
v 204 2
v 205 4
v 206 3
v 207 0
v 208 1
v 209 2
v 210 4
v 211 3
v 212 0
v 213 1
v 214 2
v 215 4
v 216 3
v 217 0
v 218 1
v 219 2
v 220 4
v 221 3
v 222 0
v 223 1
v 224 2
v 225 4
v 226 3
v 227 0
v 228 1
v 229 2
v 230 4
v 231 3
v 232 0
v 233 1
v 234 2
v 235 4
v 236 3
v 237 0
v 238 1
v 239 2
v 240 4
v 241 3
v 242 0
v 243 1
v 244 2
v 245 4
v 246 3
v 247 0
v 248 1
v 249 2
v 250 4
v 251 3
v 252 0
v 253 1
v 254 2
v 255 4
v 256 3
v 257 0
v 258 1
v 259 2
v 260 4
v 261 3
v 262 0
v 263 1
v 264 2
v 265 4
v 266 3
v 267 0
v 268 1
v 269 2
v 270 4
v 271 3
v 272 0
v 273 1
v 274 2
v 275 4
v 276 3
v 277 0
v 278 1
v 279 2
v 280 4
v 281 3
v 282 0
v 283 1
v 284 2
v 285 4
v 286 3
v 287 0
v 288 1
v 289 2
v 290 4
v 291 3
v 292 0
v 293 1
v 294 2
v 295 4
v 296 3
v 297 0
v 298 1
v 299 2
v 300 4
v 301 3
v 302 0
v 303 1
v 304 2
v 305 4
v 306 3
v 307 0
v 308 1
v 309 2
v 310 4
v 311 3
v 312 0
v 313 1
v 314 2
v 315 4
v 316 3
v 317 0
v 318 1
v 319 2
v 320 4
v 321 3
v 322 0
v 323 1
v 324 2
v 325 4
v 326 3
v 327 0
v 328 1
v 329 2
v 330 4
v 331 3
v 332 0
v 333 1
v 334 2
v 335 4
v 336 3
v 337 0
v 338 1
v 339 2
v 340 4
v 341 3
v 342 0
v 343 1
v 344 2
v 345 4
v 346 3
v 347 0
v 348 1
v 349 2
v 350 4
v 351 3
v 352 0
v 353 1
v 354 2
v 355 4
v 356 3
v 357 0
v 358 1
v 359 2
v 360 4
v 361 3
v 362 0
v 363 1
v 364 2
v 365 4
v 366 3
v 367 0
v 368 1
v 369 2
v 370 4
v 371 3
v 372 0
v 373 1
v 374 2
v 375 4
v 376 3
v 377 0
v 378 1
v 379 2
v 380 4
v 381 3
v 382 0
v 383 1
v 384 2
v 385 4
v 386 3
v 387 0
v 388 1
v 389 2
v 390 4
v 391 3
v 392 0
v 393 1
v 394 2
v 395 4
v 396 3
v 397 0
v 398 1
v 399 2
v 400 4
v 401 3
v 402 0
v 403 1
v 404 2
v 405 4
v 406 3
v 407 0
v 408 1
v 409 2
v 410 4
v 411 3
v 412 0
v 413 1
v 414 2
v 415 4
v 416 3
v 417 0
v 418 1
v 419 2
v 420 4
v 421 3
v 422 0
v 423 1
v 424 2
v 425 4
v 426 3
v 427 0
v 428 1
v 429 2
v 430 4
v 431 3
v 432 0
v 433 1
v 434 2
v 435 4
v 436 3
v 437 0
v 438 1
v 439 2
v 440 4
v 441 3
v 442 0
v 443 1
v 444 2
v 445 4
v 446 3
v 447 0
v 448 1
v 449 2
v 450 4
